experiment/data/lkh-res/Vrp-Set-Golden-n241/Vrp-Set-Golden-n241-lkh/0.lkh1.vrp
NAME : 0
COMMENT : CVRP Instance
TYPE : CVRP
DIMENSION : 241
EDGE_WEIGHT_TYPE : EUC_2D
CAPACITY : 550
NODE_COORD_SECTION
1	0	0
2	3000	0
3	2963	469
4	2853	927
5	2673	1362
6	2427	1763
7	2121	2121
8	1763	2427
9	1362	2673
10	927	2853
11	469	2963
12	0	3000
13	-468	2963
14	-926	2853
15	-1361	2673
16	-1762	2427
17	-2120	2121
18	-2426	1763
19	-2672	1362
20	-2852	927
21	-2962	469
22	-2999	0
23	-2962	-468
24	-2852	-926
25	-2672	-1361
26	-2426	-1762
27	-2120	-2120
28	-1762	-2426
29	-1361	-2672
30	-926	-2852
31	-468	-2962
32	0	-2999
33	469	-2962
34	927	-2852
35	1362	-2672
36	1763	-2426
37	2121	-2120
38	2427	-1762
39	2673	-1361
40	2853	-926
41	2963	-468
42	6000	0
43	5926	939
44	5706	1854
45	5346	2724
46	4854	3527
47	4243	4243
48	3527	4854
49	2724	5346
50	1854	5706
51	939	5926
52	0	6000
53	-938	5926
54	-1853	5706
55	-2723	5346
56	-3526	4854
57	-4242	4243
58	-4853	3527
59	-5345	2724
60	-5705	1854
61	-5925	939
62	-5999	0
63	-5925	-938
64	-5705	-1853
65	-5345	-2723
66	-4853	-3526
67	-4242	-4242
68	-3526	-4853
69	-2723	-5345
70	-1853	-5705
71	-938	-5925
72	0	-5999
73	939	-5925
74	1854	-5705
75	2724	-5345
76	3527	-4853
77	4243	-4242
78	4854	-3526
79	5346	-2723
80	5706	-1853
81	5926	-938
82	9000	0
83	8889	1408
84	8560	2781
85	8019	4086
86	7281	5290
87	6364	6364
88	5290	7281
89	4086	8019
90	2781	8560
91	1408	8889
92	0	9000
93	-1407	8889
94	-2780	8560
95	-4085	8019
96	-5289	7281
97	-6363	6364
98	-7280	5290
99	-8018	4086
100	-8559	2781
101	-8888	1408
102	-8999	0
103	-8888	-1407
104	-8559	-2780
105	-8018	-4085
106	-7280	-5289
107	-6363	-6363
108	-5289	-7280
109	-4085	-8018
110	-2780	-8559
111	-1407	-8888
112	0	-8999
113	1408	-8888
114	2781	-8559
115	4086	-8018
116	5290	-7280
117	6364	-6363
118	7281	-5289
119	8019	-4085
120	8560	-2780
121	8889	-1407
122	12000	0
123	11852	1877
124	11413	3708
125	10692	5448
126	9708	7053
127	8485	8485
128	7053	9708
129	5448	10692
130	3708	11413
131	1877	11852
132	0	12000
133	-1876	11852
134	-3707	11413
135	-5447	10692
136	-7052	9708
137	-8484	8485
138	-9707	7053
139	-10691	5448
140	-11412	3708
141	-11851	1877
142	-11999	0
143	-11851	-1876
144	-11412	-3707
145	-10691	-5447
146	-9707	-7052
147	-8484	-8484
148	-7052	-9707
149	-5447	-10691
150	-3707	-11412
151	-1876	-11851
152	0	-11999
153	1877	-11851
154	3708	-11412
155	5448	-10691
156	7053	-9707
157	8485	-8484
158	9708	-7052
159	10692	-5447
160	11413	-3707
161	11852	-1876
162	15000	0
163	14815	2347
164	14266	4635
165	13365	6810
166	12135	8817
167	10607	10607
168	8817	12135
169	6810	13365
170	4635	14266
171	2347	14815
172	0	15000
173	-2346	14815
174	-4634	14266
175	-6809	13365
176	-8816	12135
177	-10606	10607
178	-12134	8817
179	-13364	6810
180	-14265	4635
181	-14814	2347
182	-14999	0
183	-14814	-2346
184	-14265	-4634
185	-13364	-6809
186	-12134	-8816
187	-10606	-10606
188	-8816	-12134
189	-6809	-13364
190	-4634	-14265
191	-2346	-14814
192	0	-14999
193	2347	-14814
194	4635	-14265
195	6810	-13364
196	8817	-12134
197	10607	-10606
198	12135	-8816
199	13365	-6809
200	14266	-4634
201	14815	-2346
202	18000	0
203	17778	2816
204	17119	5562
205	16038	8172
206	14562	10580
207	12728	12728
208	10580	14562
209	8172	16038
210	5562	17119
211	2816	17778
212	0	18000
213	-2815	17778
214	-5561	17119
215	-8171	16038
216	-10579	14562
217	-12727	12728
218	-14561	10580
219	-16037	8172
220	-17118	5562
221	-17777	2816
222	-17999	0
223	-17777	-2815
224	-17118	-5561
225	-16037	-8171
226	-14561	-10579
227	-12727	-12727
228	-10579	-14561
229	-8171	-16037
230	-5561	-17118
231	-2815	-17777
232	0	-17999
233	2816	-17777
234	5562	-17118
235	8172	-16037
236	10580	-14561
237	12728	-12727
238	14562	-10579
239	16038	-8171
240	17119	-5561
241	17778	-2815
DEMAND_SECTION
1	0
2	10
3	30
4	30
5	10
6	10
7	30
8	30
9	10
10	10
11	30
12	30
13	10
14	10
15	30
16	30
17	10
18	10
19	30
20	30
21	10
22	10
23	30
24	30
25	10
26	10
27	30
28	30
29	10
30	10
31	30
32	30
33	10
34	10
35	30
36	30
37	10
38	10
39	30
40	30
41	10
42	10
43	30
44	30
45	10
46	10
47	30
48	30
49	10
50	10
51	30
52	30
53	10
54	10
55	30
56	30
57	10
58	10
59	30
60	30
61	10
62	10
63	30
64	30
65	10
66	10
67	30
68	30
69	10
70	10
71	30
72	30
73	10
74	10
75	30
76	30
77	10
78	10
79	30
80	30
81	10
82	10
83	30
84	30
85	10
86	10
87	30
88	30
89	10
90	10
91	30
92	30
93	10
94	10
95	30
96	30
97	10
98	10
99	30
100	30
101	10
102	10
103	30
104	30
105	10
106	10
107	30
108	30
109	10
110	10
111	30
112	30
113	10
114	10
115	30
116	30
117	10
118	10
119	30
120	30
121	10
122	10
123	30
124	30
125	10
126	10
127	30
128	30
129	10
130	10
131	30
132	30
133	10
134	10
135	30
136	30
137	10
138	10
139	30
140	30
141	10
142	10
143	30
144	30
145	10
146	10
147	30
148	30
149	10
150	10
151	30
152	30
153	10
154	10
155	30
156	30
157	10
158	10
159	30
160	30
161	10
162	10
163	30
164	30
165	10
166	10
167	30
168	30
169	10
170	10
171	30
172	30
173	10
174	10
175	30
176	30
177	10
178	10
179	30
180	30
181	10
182	10
183	30
184	30
185	10
186	10
187	30
188	30
189	10
190	10
191	30
192	30
193	10
194	10
195	30
196	30
197	10
198	10
199	30
200	30
201	10
202	10
203	30
204	30
205	10
206	10
207	30
208	30
209	10
210	10
211	30
212	30
213	10
214	10
215	30
216	30
217	10
218	10
219	30
220	30
221	10
222	10
223	30
224	30
225	10
226	10
227	30
228	30
229	10
230	10
231	30
232	30
233	10
234	10
235	30
236	30
237	10
238	10
239	30
240	30
241	10
DEPOT_SECTION
1
-1
EOF
