experiment/data/lkh-res/Vrp-Set-Golden-n241/Vrp-Set-Golden-n241-lkh/0.lkh1.log
PARAMETER_FILE = baseline_results/cvrp_lkh/Vrp-Set-Golden-n241/Vrp-Set-Golden-n241-lkh/0.lkh1.par
Reading PROBLEM_FILE: "baseline_results/cvrp_lkh/Vrp-Set-Golden-n241/Vrp-Set-Golden-n241-lkh/0.lkh1.vrp" ... done
ASCENT_CANDIDATES = 50
BACKBONE_TRIALS = 0
BACKTRACKING = NO
# BWTSP =
# CANDIDATE_FILE =
CANDIDATE_SET_TYPE = ALPHA
# DISTANCE =
DEPOT = 1
# EDGE_FILE =
EXCESS = 0.00414938
EXTERNAL_SALESMEN = 0
EXTRA_CANDIDATES = 0 
EXTRA_CANDIDATE_SET_TYPE = QUADRANT
GAIN23 = NO
GAIN_CRITERION = YES
INITIAL_PERIOD = 120
INITIAL_STEP_SIZE = 1
INITIAL_TOUR_ALGORITHM = WALK
# INITIAL_TOUR_FILE = 
INITIAL_TOUR_FRACTION = 1.000
# INPUT_TOUR_FILE = 
KICK_TYPE = 4
KICKS = 1
# MAX_BREADTH =
MAKESPAN = NO
MAX_CANDIDATES = 5 
MAX_SWAPS = 0
MAX_TRIALS = 10000
# MERGE_TOUR_FILE =
MOVE_TYPE = 5 SPECIAL
MTSP_MIN_SIZE = 1
MTSP_MAX_SIZE = 240
# MTSP_SOLUTION_FILE = 
# NONSEQUENTIAL_MOVE_TYPE = 5
# OPTIMUM =
OUTPUT_TOUR_FILE = baseline_results/cvrp_lkh/Vrp-Set-Golden-n241/Vrp-Set-Golden-n241-lkh/0.lkh1.tour
PATCHING_A = 1 
PATCHING_C = 0 
# PI_FILE = 
POPMUSIC_INITIAL_TOUR = NO
POPMUSIC_MAX_NEIGHBORS = 5
POPMUSIC_SAMPLE_SIZE = 10
POPMUSIC_SOLUTIONS = 50
POPMUSIC_TRIALS = 1
POPULATION_SIZE = 10
PRECISION = 100
PROBLEM_FILE = baseline_results/cvrp_lkh/Vrp-Set-Golden-n241/Vrp-Set-Golden-n241-lkh/0.lkh1.vrp
RECOMBINATION = IPT
RESTRICTED_SEARCH = YES
RUNS = 1
SALESMEN = 9
SCALE = 1
SEED = 1234
# SINTEF_SOLUTION_FILE = 
STOP_AT_OPTIMUM = YES
SUBGRADIENT = YES
# SUBPROBLEM_SIZE =
# SUBPROBLEM_TOUR_FILE = 
SUBSEQUENT_MOVE_TYPE = 5 SPECIAL
SUBSEQUENT_PATCHING = YES
# TIME_LIMIT =
# TOTAL_TIME_LIMIT =
# TOUR_FILE = 
TRACE_LEVEL = 1
VEHICLES = 9

Lower bound = 456957.7, Ascent time = 0.08 sec.
Cand.min = 5, Cand.avg = 5.0, Cand.max = 5
Preprocessing time = 0.08 sec.
* 1: Cost = 0_615282, Time = 0.02 sec. 
Writing OUTPUT_TOUR_FILE: "baseline_results/cvrp_lkh/Vrp-Set-Golden-n241/Vrp-Set-Golden-n241-lkh/0.lkh1.tour" ... done
* 2: Cost = 0_610243, Time = 0.02 sec. 
Writing OUTPUT_TOUR_FILE: "baseline_results/cvrp_lkh/Vrp-Set-Golden-n241/Vrp-Set-Golden-n241-lkh/0.lkh1.tour" ... done
* 3: Cost = 0_587457, Time = 0.04 sec. 
Writing OUTPUT_TOUR_FILE: "baseline_results/cvrp_lkh/Vrp-Set-Golden-n241/Vrp-Set-Golden-n241-lkh/0.lkh1.tour" ... done
* 5: Cost = 0_587243, Time = 0.04 sec. 
Writing OUTPUT_TOUR_FILE: "baseline_results/cvrp_lkh/Vrp-Set-Golden-n241/Vrp-Set-Golden-n241-lkh/0.lkh1.tour" ... done
* 6: Cost = 0_569943, Time = 0.06 sec. 
Writing OUTPUT_TOUR_FILE: "baseline_results/cvrp_lkh/Vrp-Set-Golden-n241/Vrp-Set-Golden-n241-lkh/0.lkh1.tour" ... done
* 9: Cost = 0_564967, Time = 0.07 sec. 
Writing OUTPUT_TOUR_FILE: "baseline_results/cvrp_lkh/Vrp-Set-Golden-n241/Vrp-Set-Golden-n241-lkh/0.lkh1.tour" ... done
* 11: Cost = 0_563890, Time = 0.09 sec. 
Writing OUTPUT_TOUR_FILE: "baseline_results/cvrp_lkh/Vrp-Set-Golden-n241/Vrp-Set-Golden-n241-lkh/0.lkh1.tour" ... done
* 19: Cost = 0_563062, Time = 0.11 sec. 
Writing OUTPUT_TOUR_FILE: "baseline_results/cvrp_lkh/Vrp-Set-Golden-n241/Vrp-Set-Golden-n241-lkh/0.lkh1.tour" ... done
* 26: Cost = 0_562872, Time = 0.14 sec. 
Writing OUTPUT_TOUR_FILE: "baseline_results/cvrp_lkh/Vrp-Set-Golden-n241/Vrp-Set-Golden-n241-lkh/0.lkh1.tour" ... done
* 29: Cost = 0_562290, Time = 0.14 sec. 
Writing OUTPUT_TOUR_FILE: "baseline_results/cvrp_lkh/Vrp-Set-Golden-n241/Vrp-Set-Golden-n241-lkh/0.lkh1.tour" ... done
* 32: Cost = 0_562038, Time = 0.15 sec. 
Writing OUTPUT_TOUR_FILE: "baseline_results/cvrp_lkh/Vrp-Set-Golden-n241/Vrp-Set-Golden-n241-lkh/0.lkh1.tour" ... done
* 35: Cost = 0_561533, Time = 0.15 sec. 
Writing OUTPUT_TOUR_FILE: "baseline_results/cvrp_lkh/Vrp-Set-Golden-n241/Vrp-Set-Golden-n241-lkh/0.lkh1.tour" ... done
* 36: Cost = 0_561531, Time = 0.15 sec. 
Writing OUTPUT_TOUR_FILE: "baseline_results/cvrp_lkh/Vrp-Set-Golden-n241/Vrp-Set-Golden-n241-lkh/0.lkh1.tour" ... done
* 37: Cost = 0_560224, Time = 0.16 sec. 
Writing OUTPUT_TOUR_FILE: "baseline_results/cvrp_lkh/Vrp-Set-Golden-n241/Vrp-Set-Golden-n241-lkh/0.lkh1.tour" ... done
* 42: Cost = 0_559637, Time = 0.19 sec. 
Writing OUTPUT_TOUR_FILE: "baseline_results/cvrp_lkh/Vrp-Set-Golden-n241/Vrp-Set-Golden-n241-lkh/0.lkh1.tour" ... done
* 48: Cost = 0_557413, Time = 0.22 sec. 
Writing OUTPUT_TOUR_FILE: "baseline_results/cvrp_lkh/Vrp-Set-Golden-n241/Vrp-Set-Golden-n241-lkh/0.lkh1.tour" ... done
* 49: Cost = 0_556547, Time = 0.22 sec. 
Writing OUTPUT_TOUR_FILE: "baseline_results/cvrp_lkh/Vrp-Set-Golden-n241/Vrp-Set-Golden-n241-lkh/0.lkh1.tour" ... done
* 51: Cost = 0_556496, Time = 0.24 sec. 
Writing OUTPUT_TOUR_FILE: "baseline_results/cvrp_lkh/Vrp-Set-Golden-n241/Vrp-Set-Golden-n241-lkh/0.lkh1.tour" ... done
* 54: Cost = 0_556173, Time = 0.25 sec. 
Writing OUTPUT_TOUR_FILE: "baseline_results/cvrp_lkh/Vrp-Set-Golden-n241/Vrp-Set-Golden-n241-lkh/0.lkh1.tour" ... done
* 60: Cost = 0_555856, Time = 0.28 sec. 
Writing OUTPUT_TOUR_FILE: "baseline_results/cvrp_lkh/Vrp-Set-Golden-n241/Vrp-Set-Golden-n241-lkh/0.lkh1.tour" ... done
* 89: Cost = 0_554885, Time = 0.45 sec. 
Writing OUTPUT_TOUR_FILE: "baseline_results/cvrp_lkh/Vrp-Set-Golden-n241/Vrp-Set-Golden-n241-lkh/0.lkh1.tour" ... done
* 101: Cost = 0_553196, Time = 0.49 sec. 
Writing OUTPUT_TOUR_FILE: "baseline_results/cvrp_lkh/Vrp-Set-Golden-n241/Vrp-Set-Golden-n241-lkh/0.lkh1.tour" ... done
* 111: Cost = 0_551830, Time = 0.51 sec. 
Writing OUTPUT_TOUR_FILE: "baseline_results/cvrp_lkh/Vrp-Set-Golden-n241/Vrp-Set-Golden-n241-lkh/0.lkh1.tour" ... done
* 114: Cost = 0_551641, Time = 0.52 sec. 
Writing OUTPUT_TOUR_FILE: "baseline_results/cvrp_lkh/Vrp-Set-Golden-n241/Vrp-Set-Golden-n241-lkh/0.lkh1.tour" ... done
* 157: Cost = 0_551028, Time = 0.68 sec. 
Writing OUTPUT_TOUR_FILE: "baseline_results/cvrp_lkh/Vrp-Set-Golden-n241/Vrp-Set-Golden-n241-lkh/0.lkh1.tour" ... done
* 183: Cost = 0_548186, Time = 0.81 sec. 
Writing OUTPUT_TOUR_FILE: "baseline_results/cvrp_lkh/Vrp-Set-Golden-n241/Vrp-Set-Golden-n241-lkh/0.lkh1.tour" ... done
* 189: Cost = 0_547722, Time = 0.84 sec. 
Writing OUTPUT_TOUR_FILE: "baseline_results/cvrp_lkh/Vrp-Set-Golden-n241/Vrp-Set-Golden-n241-lkh/0.lkh1.tour" ... done
* 201: Cost = 0_547650, Time = 0.91 sec. 
Writing OUTPUT_TOUR_FILE: "baseline_results/cvrp_lkh/Vrp-Set-Golden-n241/Vrp-Set-Golden-n241-lkh/0.lkh1.tour" ... done
* 208: Cost = 0_547115, Time = 0.94 sec. 
Writing OUTPUT_TOUR_FILE: "baseline_results/cvrp_lkh/Vrp-Set-Golden-n241/Vrp-Set-Golden-n241-lkh/0.lkh1.tour" ... done
* 219: Cost = 0_547113, Time = 1.01 sec. 
Writing OUTPUT_TOUR_FILE: "baseline_results/cvrp_lkh/Vrp-Set-Golden-n241/Vrp-Set-Golden-n241-lkh/0.lkh1.tour" ... done
* 250: Cost = 0_547029, Time = 1.14 sec. 
Writing OUTPUT_TOUR_FILE: "baseline_results/cvrp_lkh/Vrp-Set-Golden-n241/Vrp-Set-Golden-n241-lkh/0.lkh1.tour" ... done
* 252: Cost = 0_546669, Time = 1.16 sec. 
Writing OUTPUT_TOUR_FILE: "baseline_results/cvrp_lkh/Vrp-Set-Golden-n241/Vrp-Set-Golden-n241-lkh/0.lkh1.tour" ... done
* 258: Cost = 0_546256, Time = 1.18 sec. 
Writing OUTPUT_TOUR_FILE: "baseline_results/cvrp_lkh/Vrp-Set-Golden-n241/Vrp-Set-Golden-n241-lkh/0.lkh1.tour" ... done
* 271: Cost = 0_545688, Time = 1.21 sec. 
Writing OUTPUT_TOUR_FILE: "baseline_results/cvrp_lkh/Vrp-Set-Golden-n241/Vrp-Set-Golden-n241-lkh/0.lkh1.tour" ... done
* 273: Cost = 0_545686, Time = 1.21 sec. 
Writing OUTPUT_TOUR_FILE: "baseline_results/cvrp_lkh/Vrp-Set-Golden-n241/Vrp-Set-Golden-n241-lkh/0.lkh1.tour" ... done
* 291: Cost = 0_545680, Time = 1.29 sec. 
Writing OUTPUT_TOUR_FILE: "baseline_results/cvrp_lkh/Vrp-Set-Golden-n241/Vrp-Set-Golden-n241-lkh/0.lkh1.tour" ... done
* 298: Cost = 0_545261, Time = 1.33 sec. 
Writing OUTPUT_TOUR_FILE: "baseline_results/cvrp_lkh/Vrp-Set-Golden-n241/Vrp-Set-Golden-n241-lkh/0.lkh1.tour" ... done
* 302: Cost = 0_544970, Time = 1.35 sec. 
Writing OUTPUT_TOUR_FILE: "baseline_results/cvrp_lkh/Vrp-Set-Golden-n241/Vrp-Set-Golden-n241-lkh/0.lkh1.tour" ... done
* 308: Cost = 0_544897, Time = 1.38 sec. 
Writing OUTPUT_TOUR_FILE: "baseline_results/cvrp_lkh/Vrp-Set-Golden-n241/Vrp-Set-Golden-n241-lkh/0.lkh1.tour" ... done
* 432: Cost = 0_544827, Time = 1.80 sec. 
Writing OUTPUT_TOUR_FILE: "baseline_results/cvrp_lkh/Vrp-Set-Golden-n241/Vrp-Set-Golden-n241-lkh/0.lkh1.tour" ... done
* 462: Cost = 0_544431, Time = 1.92 sec. 
Writing OUTPUT_TOUR_FILE: "baseline_results/cvrp_lkh/Vrp-Set-Golden-n241/Vrp-Set-Golden-n241-lkh/0.lkh1.tour" ... done
* 473: Cost = 0_544079, Time = 1.95 sec. 
Writing OUTPUT_TOUR_FILE: "baseline_results/cvrp_lkh/Vrp-Set-Golden-n241/Vrp-Set-Golden-n241-lkh/0.lkh1.tour" ... done
* 488: Cost = 0_543114, Time = 2.00 sec. 
Writing OUTPUT_TOUR_FILE: "baseline_results/cvrp_lkh/Vrp-Set-Golden-n241/Vrp-Set-Golden-n241-lkh/0.lkh1.tour" ... done
* 491: Cost = 0_543112, Time = 2.01 sec. 
Writing OUTPUT_TOUR_FILE: "baseline_results/cvrp_lkh/Vrp-Set-Golden-n241/Vrp-Set-Golden-n241-lkh/0.lkh1.tour" ... done
* 511: Cost = 0_543111, Time = 2.05 sec. 
Writing OUTPUT_TOUR_FILE: "baseline_results/cvrp_lkh/Vrp-Set-Golden-n241/Vrp-Set-Golden-n241-lkh/0.lkh1.tour" ... done
* 525: Cost = 0_543109, Time = 2.12 sec. 
Writing OUTPUT_TOUR_FILE: "baseline_results/cvrp_lkh/Vrp-Set-Golden-n241/Vrp-Set-Golden-n241-lkh/0.lkh1.tour" ... done
* 549: Cost = 0_543089, Time = 2.21 sec. 
Writing OUTPUT_TOUR_FILE: "baseline_results/cvrp_lkh/Vrp-Set-Golden-n241/Vrp-Set-Golden-n241-lkh/0.lkh1.tour" ... done
* 1829: Cost = 0_542833, Time = 6.95 sec. 
Writing OUTPUT_TOUR_FILE: "baseline_results/cvrp_lkh/Vrp-Set-Golden-n241/Vrp-Set-Golden-n241-lkh/0.lkh1.tour" ... done
* 1844: Cost = 0_542620, Time = 6.99 sec. 
Writing OUTPUT_TOUR_FILE: "baseline_results/cvrp_lkh/Vrp-Set-Golden-n241/Vrp-Set-Golden-n241-lkh/0.lkh1.tour" ... done
* 1869: Cost = 0_542454, Time = 7.08 sec. 
Writing OUTPUT_TOUR_FILE: "baseline_results/cvrp_lkh/Vrp-Set-Golden-n241/Vrp-Set-Golden-n241-lkh/0.lkh1.tour" ... done
* 1885: Cost = 0_542319, Time = 7.16 sec. 
Writing OUTPUT_TOUR_FILE: "baseline_results/cvrp_lkh/Vrp-Set-Golden-n241/Vrp-Set-Golden-n241-lkh/0.lkh1.tour" ... done
* 1887: Cost = 0_541958, Time = 7.17 sec. 
Writing OUTPUT_TOUR_FILE: "baseline_results/cvrp_lkh/Vrp-Set-Golden-n241/Vrp-Set-Golden-n241-lkh/0.lkh1.tour" ... done
* 2547: Cost = 0_541141, Time = 9.42 sec. 
Writing OUTPUT_TOUR_FILE: "baseline_results/cvrp_lkh/Vrp-Set-Golden-n241/Vrp-Set-Golden-n241-lkh/0.lkh1.tour" ... done
* 2593: Cost = 0_540483, Time = 9.58 sec. 
Writing OUTPUT_TOUR_FILE: "baseline_results/cvrp_lkh/Vrp-Set-Golden-n241/Vrp-Set-Golden-n241-lkh/0.lkh1.tour" ... done
* 2911: Cost = 0_540409, Time = 10.69 sec. 
Writing OUTPUT_TOUR_FILE: "baseline_results/cvrp_lkh/Vrp-Set-Golden-n241/Vrp-Set-Golden-n241-lkh/0.lkh1.tour" ... done
* 2922: Cost = 0_540406, Time = 10.73 sec. 
Writing OUTPUT_TOUR_FILE: "baseline_results/cvrp_lkh/Vrp-Set-Golden-n241/Vrp-Set-Golden-n241-lkh/0.lkh1.tour" ... done
* 2963: Cost = 0_540390, Time = 10.91 sec. 
Writing OUTPUT_TOUR_FILE: "baseline_results/cvrp_lkh/Vrp-Set-Golden-n241/Vrp-Set-Golden-n241-lkh/0.lkh1.tour" ... done
* 3306: Cost = 0_540110, Time = 12.19 sec. 
Writing OUTPUT_TOUR_FILE: "baseline_results/cvrp_lkh/Vrp-Set-Golden-n241/Vrp-Set-Golden-n241-lkh/0.lkh1.tour" ... done
* 3465: Cost = 0_540080, Time = 12.80 sec. 
Writing OUTPUT_TOUR_FILE: "baseline_results/cvrp_lkh/Vrp-Set-Golden-n241/Vrp-Set-Golden-n241-lkh/0.lkh1.tour" ... done
Population:
  1: 0_540080
Run 1: Cost = 0_540080, Time = 41.22 sec. 

Successes/Runs = 0/1 
Cost.min = 540080, Cost.avg = 540080.00, Cost.max = 540080
Gap.min = 0.0000%, Gap.avg = 0.0000%, Gap.max = 0.0000%
Penalty.min = 0, Penalty.avg = 0.00, Penalty.max = 0
Trials.min = 10000, Trials.avg = 10000.0, Trials.max = 10000
Time.min = 41.22 sec., Time.avg = 41.22 sec., Time.max = 41.22 sec.
Time.total = 41.30 sec.
  Size.min = 22, Size.max = 31, Penalty = 0
  Cost.min = 19111, Cost.max = 92013, Cost.sum = 540080
Best CVRP solution:
  Cost = 0_540080

