experiment/data/lkh-res/Vrp-Set-Golden-n241/Vrp-Set-Golden-n241-lkh/0.lkh1.tour
NAME : 0.540080.tour
COMMENT : Length = 540080
COMMENT : Found by LKH-3 [Keld Helsgaun] Tue Apr  9 01:55:58 2024
TYPE : TOUR
DIMENSION : 249
TOUR_SECTION
1
20
60
59
58
57
56
55
54
53
52
51
50
49
89
90
91
92
93
94
95
96
97
98
99
100
101
61
21
22
244
29
69
109
110
111
112
113
114
115
116
117
118
119
120
121
81
80
79
78
77
76
75
74
73
72
71
70
30
245
23
63
62
102
142
141
140
139
138
137
136
135
134
133
132
131
130
129
128
127
87
88
48
47
7
247
19
18
17
16
15
14
13
12
11
10
9
8
3
41
40
39
38
37
36
35
34
33
32
31
243
4
44
43
82
122
161
160
159
158
157
156
155
154
153
152
151
150
149
148
108
68
28
242
27
67
107
147
187
188
189
190
191
192
193
194
195
196
197
198
199
200
201
162
163
123
83
42
2
246
84
124
164
204
203
202
241
240
239
238
237
236
235
234
233
232
231
230
229
228
227
226
225
185
186
146
106
66
26
249
24
64
104
103
143
183
182
181
180
179
178
177
176
175
174
173
172
171
170
169
168
167
166
126
86
46
6
248
5
45
85
125
165
205
206
207
208
209
210
211
212
213
214
215
216
217
218
219
220
221
222
223
224
184
144
145
105
65
25
-1
EOF
